1
25
34
0
7
31
38
15
10
17
3
37
40
36
22
43
17
35
29
28
14
33
27
14
40
21
42
21
4
41
6
6
6
38
36
28
39
37
12
35
0
16
30
1
5
23
20
2
27
33
25
36
3
19
10
18
24
15
24
40
31
19
16
7
9
32
3
26
39
13
12
22
43
39
11
5
7
23
9
20
2
18
35
29
8
38
33
30
2
30
23
13
25
42
8
14
12
13
15
32
41
4
19
11
26
43
31
26
16
27
22
21
11
10
29
0
8
20
28
4
24
34
17
5
37